
include ${pot}.lmp
include kalj.lmp
units lj
atom_style atomic

variable dimensions equal 3
variable density equal 1.2
variable fraca equal 0.8

dimension ${dimensions}
dimension 3
read_restart ${prevbasename}.final.lmprestart.${steps}
read_restart equil/kalj_T0.8_n360_v300_150000_1.final.lmprestart.${steps}
read_restart equil/kalj_T0.8_n360_v300_150000_1.final.lmprestart.150000
Reading restart file ...
  restart file = 15 Sep 2022, LAMMPS = 15 Sep 2022
  restoring atom style atomic from restart
  orthogonal box = (0 0 0) to (6.6943295 6.6943295 6.6943295)
  3 by 4 by 4 MPI processor grid
  restoring pair style lj/cut from restart
  360 atoms
  read_restart CPU = 0.080 seconds
include ${pot}_particles.lmp
include kalj_particles.lmp
mass * 1.0 #  set mass 1.0 for all types

pair_style lj/cut 2.5
#pair coeffs type1 type2 eps sigma
pair_coeff 1 1 1.0 1.00 2.5
pair_coeff 1 2 1.5 0.80 2.0
pair_coeff 2 2 0.5 0.88 2.2
pair_modify shift yes
reset_timestep 0

print "Setting up equilibration run"
Setting up equilibration run
variable dumptime2 equal ${steps}/2000
variable dumptime2 equal 150000/2000
dump 1 all dcd ${dumptime2} ${basename}.unwrap.dcd
dump 1 all dcd 75 ${basename}.unwrap.dcd
dump 1 all dcd 75 prod/kalj_T0.8_n360_v300_prod_150000_1.unwrap.dcd
#dump 2 all dcd ${dumptime2} ${basename}.dcd
dump_modify 1 unwrap yes
#dump_modify 2 unwrap no

restart ${restarttime} ${basename}.restart
restart 150000 ${basename}.restart
restart 150000 prod/kalj_T0.8_n360_v300_prod_150000_1.restart
restart ${steps} ${basename}.final.lmprestart
restart 150000 ${basename}.final.lmprestart
restart 150000 prod/kalj_T0.8_n360_v300_prod_150000_1.final.lmprestart

thermo ${thermotime}
thermo 5000
timestep ${timestep}
timestep 0.002

neighbor 0.5 bin
neigh_modify every 1 delay ${neighborstep} check yes
neigh_modify every 1 delay 25 check yes

#velocity all create ${temp} ${id} dist gaussian
fix 1 all nvt temp ${temp} ${temp} ${taut}
fix 1 all nvt temp 0.8 ${temp} ${taut}
fix 1 all nvt temp 0.8 0.8 ${taut}
fix 1 all nvt temp 0.8 0.8 0.2
Resetting global fix info from restart file:
  fix style: nvt, fix ID: 1

variable steps4 equal ${steps}/4
variable steps4 equal 150000/4
run ${steps4}
run 37500
Generated 0 of 1 mixed pair_coeff terms from geometric mixing rule
All restart file global fix info was re-assigned
Neighbor list info ...
  update: every = 1 steps, delay = 25 steps, check = yes
  max neighbors/atom: 2000, page size: 100000
  master list distance cutoff = 3
  ghost atom cutoff = 3
  binsize = 1.5, bins = 5 5 5
  1 neighbor lists, perpetual/occasional/extra = 1 0 0
  (1) pair lj/cut, perpetual
      attributes: half, newton on
      pair build: half/bin/atomonly/newton
      stencil: half/bin/3d
      bin: standard
Per MPI rank memory allocation (min/avg/max) = 2.981 | 2.981 | 2.982 Mbytes
   Step          Temp          E_pair         E_mol          TotEng         Press     
         0   0.79181795    -6.3791872      0             -5.1947595      7.4807272    
      5000   0.80118923    -6.3680558      0             -5.1696103      7.4591959    
     10000   0.84253301    -6.4284338      0             -5.1681448      7.0935604    
     15000   0.84014101    -6.3980742      0             -5.1413633      7.2740465    
     20000   0.7721774     -6.3422361      0             -5.1871874      7.6169233    
     25000   0.82328116    -6.3581813      0             -5.1266899      7.610103     
     30000   0.84230777    -6.2809858      0             -5.0210337      8.1818342    
     35000   0.83533383    -6.4517581      0             -5.2022379      6.9682595    
     37500   0.77504209    -6.3069886      0             -5.1476548      7.8074592    
Loop time of 1.83119 on 48 procs for 37500 steps with 360 atoms

Performance: 3538673.626 tau/day, 20478.435 timesteps/s, 7.372 Matom-step/s
99.6% CPU use with 48 MPI tasks x 1 OpenMP threads

MPI task timing breakdown:
Section |  min time  |  avg time  |  max time  |%varavg| %total
---------------------------------------------------------------
Pair    | 0.10625    | 0.1192     | 0.1352     |   2.0 |  6.51
Neigh   | 0.015568   | 0.016924   | 0.018072   |   0.4 |  0.92
Comm    | 1.3158     | 1.3574     | 1.4083     |   2.1 | 74.13
Output  | 0.024337   | 0.040259   | 0.065962   |   5.5 |  2.20
Modify  | 0.17151    | 0.22016    | 0.26707    |   5.5 | 12.02
Other   |            | 0.07724    |            |       |  4.22

Nlocal:            7.5 ave          11 max           4 min
Histogram: 1 1 7 0 17 12 0 7 2 1
Nghost:        577.667 ave         592 max         562 min
Histogram: 1 3 3 8 10 4 7 3 1 8
Neighs:            434 ave         632 max         215 min
Histogram: 1 1 5 5 9 11 8 3 4 1

Total # of neighbors = 20832
Ave neighs/atom = 57.866667
Neighbor list builds = 898
Dangerous builds = 0
Total wall time: 0:00:02
