
include ${pot}.lmp
include kalj.lmp
units lj
atom_style atomic

variable dimensions equal 3
variable density equal 1.2
variable fraca equal 0.8

dimension ${dimensions}
dimension 3
read_restart ${prevbasename}.final.lmprestart.${steps}
read_restart equil/kalj_T1_n360_v300_50000_1.final.lmprestart.${steps}
read_restart equil/kalj_T1_n360_v300_50000_1.final.lmprestart.50000
Reading restart file ...
  restart file = 15 Sep 2022, LAMMPS = 15 Sep 2022
  restoring atom style atomic from restart
  orthogonal box = (0 0 0) to (6.6943295 6.6943295 6.6943295)
  3 by 4 by 4 MPI processor grid
  restoring pair style lj/cut from restart
  360 atoms
  read_restart CPU = 0.105 seconds
include ${pot}_particles.lmp
include kalj_particles.lmp
mass * 1.0 #  set mass 1.0 for all types

pair_style lj/cut 2.5
#pair coeffs type1 type2 eps sigma
pair_coeff 1 1 1.0 1.00 2.5
pair_coeff 1 2 1.5 0.80 2.0
pair_coeff 2 2 0.5 0.88 2.2
pair_modify shift yes
reset_timestep 0

print "Setting up equilibration run"
Setting up equilibration run
variable dumptime2 equal ${steps}/2000
variable dumptime2 equal 50000/2000
dump 1 all dcd ${dumptime2} ${basename}.unwrap.dcd
dump 1 all dcd 25 ${basename}.unwrap.dcd
dump 1 all dcd 25 prod/kalj_T1_n360_v300_prod_50000_1.unwrap.dcd
#dump 2 all dcd ${dumptime2} ${basename}.dcd
dump_modify 1 unwrap yes
#dump_modify 2 unwrap no

restart ${restarttime} ${basename}.restart
restart 30000 ${basename}.restart
restart 30000 prod/kalj_T1_n360_v300_prod_50000_1.restart
restart ${steps} ${basename}.final.lmprestart
restart 50000 ${basename}.final.lmprestart
restart 50000 prod/kalj_T1_n360_v300_prod_50000_1.final.lmprestart

thermo ${thermotime}
thermo 2000
timestep ${timestep}
timestep 0.002

neighbor 0.5 bin
neigh_modify every 1 delay ${neighborstep} check yes
neigh_modify every 1 delay 20 check yes

#velocity all create ${temp} ${id} dist gaussian
fix 1 all nvt temp ${temp} ${temp} ${taut}
fix 1 all nvt temp 1 ${temp} ${taut}
fix 1 all nvt temp 1 1 ${taut}
fix 1 all nvt temp 1 1 0.2
Resetting global fix info from restart file:
  fix style: nvt, fix ID: 1

variable steps4 equal ${steps}/4
variable steps4 equal 50000/4
run ${steps4}
run 12500
Generated 0 of 1 mixed pair_coeff terms from geometric mixing rule
All restart file global fix info was re-assigned
Neighbor list info ...
  update: every = 1 steps, delay = 20 steps, check = yes
  max neighbors/atom: 2000, page size: 100000
  master list distance cutoff = 3
  ghost atom cutoff = 3
  binsize = 1.5, bins = 5 5 5
  1 neighbor lists, perpetual/occasional/extra = 1 0 0
  (1) pair lj/cut, perpetual
      attributes: half, newton on
      pair build: half/bin/atomonly/newton
      stencil: half/bin/3d
      bin: standard
Per MPI rank memory allocation (min/avg/max) = 2.981 | 2.981 | 2.982 Mbytes
   Step          Temp          E_pair         E_mol          TotEng         Press     
         0   0.94158746    -6.0404593      0             -4.6320014      9.5842499    
      2000   1.0060435     -5.9572366      0             -4.4523631      10.192476    
      4000   0.95403575    -5.9994929      0             -4.5724144      9.7685715    
      6000   0.9928163     -5.9925675      0             -4.5074798      9.9148236    
      8000   1.0228513     -5.9658955      0             -4.4358804      10.130158    
     10000   1.0283555     -5.8979527      0             -4.3597043      10.587844    
     12000   0.98967881    -6.013987       0             -4.5335925      9.7147766    
     12500   0.99757856    -6.0443197      0             -4.5521084      9.6740047    
Loop time of 0.654172 on 48 procs for 12500 steps with 360 atoms

Performance: 3301886.088 tau/day, 19108.137 timesteps/s, 6.879 Matom-step/s
99.4% CPU use with 48 MPI tasks x 1 OpenMP threads

MPI task timing breakdown:
Section |  min time  |  avg time  |  max time  |%varavg| %total
---------------------------------------------------------------
Pair    | 0.035799   | 0.040276   | 0.046632   |   1.1 |  6.16
Neigh   | 0.0058371  | 0.0064724  | 0.0068792  |   0.3 |  0.99
Comm    | 0.44286    | 0.4601     | 0.47805    |   1.4 | 70.33
Output  | 0.023877   | 0.039213   | 0.064251   |   5.4 |  5.99
Modify  | 0.055853   | 0.070963   | 0.083903   |   2.9 | 10.85
Other   |            | 0.03715    |            |       |  5.68

Nlocal:            7.5 ave          11 max           5 min
Histogram: 3 9 0 13 0 13 6 0 2 2
Nghost:        574.542 ave         594 max         557 min
Histogram: 2 5 7 4 7 9 7 3 2 2
Neighs:        432.667 ave         687 max         237 min
Histogram: 2 1 8 10 13 5 4 4 0 1

Total # of neighbors = 20768
Ave neighs/atom = 57.688889
Neighbor list builds = 341
Dangerous builds = 0
Total wall time: 0:00:01
